(set-logic HORN)
(declare-fun !inv0 (Int (Array Int Int) (Array Int Int) Int ) Bool)
(assert (forall ((N@0 Int)(a@0 (Array Int Int))(b@0 (Array Int Int))(i@1 Int)) (=> (and (> |N@0| 0) (= |i@1| 0)) (!inv0 |N@0| |a@0| |b@0| |i@1|))))
(assert (forall ((N@0 Int)(a@0 (Array Int Int))(b@0 (Array Int Int))(i@0 Int)(b@1 (Array Int Int))(i@1 Int)) (=> (and (!inv0 |N@0| |a@0| |b@0| |i@0|) (< |i@0| |N@0|) (= |b@1| (store |b@0| |i@0| (select |a@0| (- (- |N@0| |i@0|) 1)))) (= |i@1| (+ |i@0| 1))) (!inv0 |N@0| |a@0| |b@1| |i@1|))))
(assert (forall ((N@0 Int)(a@0 (Array Int Int))(b@0 (Array Int Int))(i@0 Int)) (=> (and (!inv0 |N@0| |a@0| |b@0| |i@0|) (not (< |i@0| |N@0|)) (not (forall ((x@0 Int)) (=> (and (<= 0 |x@0|) (< |x@0| |N@0|)) (= (select |a@0| |x@0|) (select |b@0| (- (- |N@0| |x@0|) 1))))))) false)))
(check-sat)